(set-info :source |printed by MathSAT|)
(declare-fun A@2 () (_ BitVec 32))
(declare-fun B@2 () (_ BitVec 32))
(declare-fun C@2 () (_ BitVec 32))
(declare-fun X@2 () (_ BitVec 32))
(declare-fun scontroller$ack@2 () (_ BitVec 8))
(declare-fun scontroller$state@2 () (_ BitVec 8))
(declare-fun scontroller$pass_token@2 () (_ BitVec 8))
(declare-fun sarbiter$state@2 () (_ BitVec 8))
(declare-fun sclient$state@2 () (_ BitVec 8))
(declare-fun sclient$req@2 () (_ BitVec 8))
(declare-fun |__ADDRESS_OF_main::ackA| () (_ BitVec 32))
(declare-fun |__ADDRESS_OF_main::ackB| () (_ BitVec 32))
(declare-fun |__ADDRESS_OF_main::ackC| () (_ BitVec 32))
(declare-fun |__ADDRESS_OF_main::sel| () (_ BitVec 32))
(declare-fun |__ADDRESS_OF_main::reqA| () (_ BitVec 32))
(declare-fun |__ADDRESS_OF_main::reqB| () (_ BitVec 32))
(declare-fun |__ADDRESS_OF_main::reqC| () (_ BitVec 32))
(declare-fun |__ADDRESS_OF_main::pass_tokenA| () (_ BitVec 32))
(declare-fun |__ADDRESS_OF_main::pass_tokenB| () (_ BitVec 32))
(declare-fun |__ADDRESS_OF_main::pass_tokenC| () (_ BitVec 32))
(declare-fun sclient$state@3 () (_ BitVec 8))
(declare-fun sclient$req@3 () (_ BitVec 8))
(declare-fun scontroller$state@3 () (_ BitVec 8))
(declare-fun scontroller$ack@3 () (_ BitVec 8))
(declare-fun scontroller$pass_token@3 () (_ BitVec 8))
(declare-fun sarbiter$state@3 () (_ BitVec 8))
(declare-fun *_Bool@1 ((_ BitVec 32)) (_ BitVec 8))
(declare-fun |main::reqA@2| () (_ BitVec 8))
(declare-fun |client::req@2| () (_ BitVec 32))
(declare-fun |main::ackA@2| () (_ BitVec 8))
(declare-fun |client::ack@2| () (_ BitVec 8))
(declare-fun |client::rand_choice@2| () (_ BitVec 8))
(declare-fun *_Bool@2 ((_ BitVec 32)) (_ BitVec 8))
(declare-fun |main::reqB@2| () (_ BitVec 8))
(declare-fun |client::req@3| () (_ BitVec 32))
(declare-fun |main::ackB@2| () (_ BitVec 8))
(declare-fun |client::ack@3| () (_ BitVec 8))
(declare-fun |client::rand_choice@3| () (_ BitVec 8))
(declare-fun *_Bool@3 ((_ BitVec 32)) (_ BitVec 8))
(declare-fun |main::reqC@2| () (_ BitVec 8))
(declare-fun |client::req@4| () (_ BitVec 32))
(declare-fun |main::ackC@2| () (_ BitVec 8))
(declare-fun |client::ack@4| () (_ BitVec 8))
(declare-fun |client::rand_choice@4| () (_ BitVec 8))
(declare-fun *_Bool@4 ((_ BitVec 32)) (_ BitVec 8))
(declare-fun |controller::req@2| () (_ BitVec 8))
(declare-fun |controller::ack@2| () (_ BitVec 32))
(declare-fun |main::sel@2| () (_ BitVec 8))
(declare-fun |controller::sel@2| () (_ BitVec 8))
(declare-fun |main::pass_tokenA@2| () (_ BitVec 8))
(declare-fun |controller::pass_token@2| () (_ BitVec 32))
(declare-fun |controller::id@2| () (_ BitVec 8))
(declare-fun |controller::is_selected@3| () (_ BitVec 8))
(declare-fun scontroller$pass_token@4 () (_ BitVec 8))
(declare-fun *_Bool@5 ((_ BitVec 32)) (_ BitVec 8))
(declare-fun *_Bool@6 ((_ BitVec 32)) (_ BitVec 8))
(declare-fun |controller::req@3| () (_ BitVec 8))
(declare-fun |controller::ack@3| () (_ BitVec 32))
(declare-fun |controller::sel@3| () (_ BitVec 8))
(declare-fun |main::pass_tokenB@2| () (_ BitVec 8))
(declare-fun |controller::pass_token@3| () (_ BitVec 32))
(declare-fun |controller::id@3| () (_ BitVec 8))
(declare-fun |controller::is_selected@5| () (_ BitVec 8))
(declare-fun scontroller$pass_token@5 () (_ BitVec 8))
(declare-fun *_Bool@7 ((_ BitVec 32)) (_ BitVec 8))
(declare-fun *_Bool@8 ((_ BitVec 32)) (_ BitVec 8))
(declare-fun |controller::req@4| () (_ BitVec 8))
(declare-fun |controller::ack@4| () (_ BitVec 32))
(declare-fun |controller::sel@4| () (_ BitVec 8))
(declare-fun |main::pass_tokenC@2| () (_ BitVec 8))
(declare-fun |controller::pass_token@4| () (_ BitVec 32))
(declare-fun |controller::id@4| () (_ BitVec 8))
(declare-fun |controller::is_selected@7| () (_ BitVec 8))
(declare-fun scontroller$pass_token@6 () (_ BitVec 8))
(declare-fun *_Bool@9 ((_ BitVec 32)) (_ BitVec 8))
(declare-fun *_Bool@10 ((_ BitVec 32)) (_ BitVec 8))
(declare-fun *unsigned_char@1 ((_ BitVec 32)) (_ BitVec 8))
(declare-fun |arbiter::sel@2| () (_ BitVec 32))
(declare-fun |main::active@2| () (_ BitVec 8))
(declare-fun |arbiter::active@2| () (_ BitVec 8))
(declare-fun |arbiter::__CPAchecker_TMP_0@3| () (_ BitVec 32))
(declare-fun *unsigned_char@2 ((_ BitVec 32)) (_ BitVec 8))
(declare-fun |main::__CPAchecker_TMP_0@3| () (_ BitVec 32))
(declare-fun |main::active@3| () (_ BitVec 8))
(assert (let ((.def_858 (*_Bool@9 |controller::ack@4|)))(let ((.def_1636 (= scontroller$ack@3 .def_858)))(let ((.def_868 (*_Bool@9 |__ADDRESS_OF_main::ackC|)))(let ((.def_753 (*_Bool@8 |__ADDRESS_OF_main::ackC|)))(let ((.def_869 (= .def_753 .def_868)))(let ((.def_756 (= |__ADDRESS_OF_main::ackC| |controller::ack@4|)))(let ((.def_870 (or .def_756 .def_869)))(let ((.def_863 (*_Bool@9 |__ADDRESS_OF_main::pass_tokenC|)))(let ((.def_761 (*_Bool@8 |__ADDRESS_OF_main::pass_tokenC|)))(let ((.def_864 (= .def_761 .def_863)))(let ((.def_862 (= |__ADDRESS_OF_main::pass_tokenC| |controller::ack@4|)))(let ((.def_865 (or .def_862 .def_864)))(let ((.def_899 (and .def_865 .def_870)))(let ((.def_872 (*_Bool@9 |__ADDRESS_OF_main::pass_tokenB|)))(let ((.def_716 (*_Bool@8 |__ADDRESS_OF_main::pass_tokenB|)))(let ((.def_873 (= .def_716 .def_872)))(let ((.def_871 (= |__ADDRESS_OF_main::pass_tokenB| |controller::ack@4|)))(let ((.def_874 (or .def_871 .def_873)))(let ((.def_900 (and .def_874 .def_899)))(let ((.def_876 (*_Bool@9 |__ADDRESS_OF_main::ackB|)))(let ((.def_720 (*_Bool@8 |__ADDRESS_OF_main::ackB|)))(let ((.def_877 (= .def_720 .def_876)))(let ((.def_875 (= |__ADDRESS_OF_main::ackB| |controller::ack@4|)))(let ((.def_878 (or .def_875 .def_877)))(let ((.def_901 (and .def_878 .def_900)))(let ((.def_880 (*_Bool@9 |__ADDRESS_OF_main::pass_tokenA|)))(let ((.def_724 (*_Bool@8 |__ADDRESS_OF_main::pass_tokenA|)))(let ((.def_881 (= .def_724 .def_880)))(let ((.def_879 (= |__ADDRESS_OF_main::pass_tokenA| |controller::ack@4|)))(let ((.def_882 (or .def_879 .def_881)))(let ((.def_902 (and .def_882 .def_901)))(let ((.def_884 (*_Bool@9 |__ADDRESS_OF_main::ackA|)))(let ((.def_728 (*_Bool@8 |__ADDRESS_OF_main::ackA|)))(let ((.def_885 (= .def_728 .def_884)))(let ((.def_883 (= |__ADDRESS_OF_main::ackA| |controller::ack@4|)))(let ((.def_886 (or .def_883 .def_885)))(let ((.def_903 (and .def_886 .def_902)))(let ((.def_888 (*_Bool@9 |__ADDRESS_OF_main::reqC|)))(let ((.def_732 (*_Bool@8 |__ADDRESS_OF_main::reqC|)))(let ((.def_889 (= .def_732 .def_888)))(let ((.def_887 (= |__ADDRESS_OF_main::reqC| |controller::ack@4|)))(let ((.def_890 (or .def_887 .def_889)))(let ((.def_904 (and .def_890 .def_903)))(let ((.def_892 (*_Bool@9 |__ADDRESS_OF_main::reqB|)))(let ((.def_736 (*_Bool@8 |__ADDRESS_OF_main::reqB|)))(let ((.def_893 (= .def_736 .def_892)))(let ((.def_891 (= |__ADDRESS_OF_main::reqB| |controller::ack@4|)))(let ((.def_894 (or .def_891 .def_893)))(let ((.def_905 (and .def_894 .def_904)))(let ((.def_896 (*_Bool@9 |__ADDRESS_OF_main::reqA|)))(let ((.def_740 (*_Bool@8 |__ADDRESS_OF_main::reqA|)))(let ((.def_897 (= .def_740 .def_896)))(let ((.def_895 (= |__ADDRESS_OF_main::reqA| |controller::ack@4|)))(let ((.def_898 (or .def_895 .def_897)))(let ((.def_906 (and .def_898 .def_905)))(let ((.def_1637 (and .def_906 .def_1636)))(let ((.def_673 (*_Bool@7 |controller::ack@3|)))(let ((.def_1627 (= scontroller$ack@3 .def_673)))(let ((.def_683 (*_Bool@7 |__ADDRESS_OF_main::ackB|)))(let ((.def_568 (*_Bool@6 |__ADDRESS_OF_main::ackB|)))(let ((.def_684 (= .def_568 .def_683)))(let ((.def_571 (= |__ADDRESS_OF_main::ackB| |controller::ack@3|)))(let ((.def_685 (or .def_571 .def_684)))(let ((.def_678 (*_Bool@7 |__ADDRESS_OF_main::pass_tokenB|)))(let ((.def_576 (*_Bool@6 |__ADDRESS_OF_main::pass_tokenB|)))(let ((.def_679 (= .def_576 .def_678)))(let ((.def_677 (= |__ADDRESS_OF_main::pass_tokenB| |controller::ack@3|)))(let ((.def_680 (or .def_677 .def_679)))(let ((.def_706 (and .def_680 .def_685)))(let ((.def_687 (*_Bool@7 |__ADDRESS_OF_main::pass_tokenA|)))(let ((.def_541 (*_Bool@6 |__ADDRESS_OF_main::pass_tokenA|)))(let ((.def_688 (= .def_541 .def_687)))(let ((.def_686 (= |__ADDRESS_OF_main::pass_tokenA| |controller::ack@3|)))(let ((.def_689 (or .def_686 .def_688)))(let ((.def_707 (and .def_689 .def_706)))(let ((.def_691 (*_Bool@7 |__ADDRESS_OF_main::ackA|)))(let ((.def_545 (*_Bool@6 |__ADDRESS_OF_main::ackA|)))(let ((.def_692 (= .def_545 .def_691)))(let ((.def_690 (= |__ADDRESS_OF_main::ackA| |controller::ack@3|)))(let ((.def_693 (or .def_690 .def_692)))(let ((.def_708 (and .def_693 .def_707)))(let ((.def_695 (*_Bool@7 |__ADDRESS_OF_main::reqC|)))(let ((.def_549 (*_Bool@6 |__ADDRESS_OF_main::reqC|)))(let ((.def_696 (= .def_549 .def_695)))(let ((.def_694 (= |__ADDRESS_OF_main::reqC| |controller::ack@3|)))(let ((.def_697 (or .def_694 .def_696)))(let ((.def_709 (and .def_697 .def_708)))(let ((.def_699 (*_Bool@7 |__ADDRESS_OF_main::reqB|)))(let ((.def_553 (*_Bool@6 |__ADDRESS_OF_main::reqB|)))(let ((.def_700 (= .def_553 .def_699)))(let ((.def_698 (= |__ADDRESS_OF_main::reqB| |controller::ack@3|)))(let ((.def_701 (or .def_698 .def_700)))(let ((.def_710 (and .def_701 .def_709)))(let ((.def_703 (*_Bool@7 |__ADDRESS_OF_main::reqA|)))(let ((.def_557 (*_Bool@6 |__ADDRESS_OF_main::reqA|)))(let ((.def_704 (= .def_557 .def_703)))(let ((.def_702 (= |__ADDRESS_OF_main::reqA| |controller::ack@3|)))(let ((.def_705 (or .def_702 .def_704)))(let ((.def_711 (and .def_705 .def_710)))(let ((.def_1628 (and .def_711 .def_1627)))(let ((.def_508 (*_Bool@5 |controller::ack@2|)))(let ((.def_1618 (= scontroller$ack@3 .def_508)))(let ((.def_518 (*_Bool@5 |__ADDRESS_OF_main::ackA|)))(let ((.def_402 (*_Bool@4 |__ADDRESS_OF_main::ackA|)))(let ((.def_519 (= .def_402 .def_518)))(let ((.def_405 (= |__ADDRESS_OF_main::ackA| |controller::ack@2|)))(let ((.def_520 (or .def_405 .def_519)))(let ((.def_513 (*_Bool@5 |__ADDRESS_OF_main::pass_tokenA|)))(let ((.def_411 (*_Bool@4 |__ADDRESS_OF_main::pass_tokenA|)))(let ((.def_514 (= .def_411 .def_513)))(let ((.def_512 (= |__ADDRESS_OF_main::pass_tokenA| |controller::ack@2|)))(let ((.def_515 (or .def_512 .def_514)))(let ((.def_533 (and .def_515 .def_520)))(let ((.def_522 (*_Bool@5 |__ADDRESS_OF_main::reqC|)))(let ((.def_385 (*_Bool@4 |__ADDRESS_OF_main::reqC|)))(let ((.def_523 (= .def_385 .def_522)))(let ((.def_521 (= |__ADDRESS_OF_main::reqC| |controller::ack@2|)))(let ((.def_524 (or .def_521 .def_523)))(let ((.def_534 (and .def_524 .def_533)))(let ((.def_526 (*_Bool@5 |__ADDRESS_OF_main::reqB|)))(let ((.def_389 (*_Bool@4 |__ADDRESS_OF_main::reqB|)))(let ((.def_527 (= .def_389 .def_526)))(let ((.def_525 (= |__ADDRESS_OF_main::reqB| |controller::ack@2|)))(let ((.def_528 (or .def_525 .def_527)))(let ((.def_535 (and .def_528 .def_534)))(let ((.def_530 (*_Bool@5 |__ADDRESS_OF_main::reqA|)))(let ((.def_393 (*_Bool@4 |__ADDRESS_OF_main::reqA|)))(let ((.def_531 (= .def_393 .def_530)))(let ((.def_529 (= |__ADDRESS_OF_main::reqA| |controller::ack@2|)))(let ((.def_532 (or .def_529 .def_531)))(let ((.def_536 (and .def_532 .def_535)))(let ((.def_1619 (and .def_536 .def_1618)))(let ((.def_381 (*_Bool@4 |client::req@4|)))(let ((.def_1610 (= sclient$req@3 .def_381)))(let ((.def_300 (*_Bool@3 |__ADDRESS_OF_main::reqB|)))(let ((.def_390 (= .def_300 .def_389)))(let ((.def_388 (= |__ADDRESS_OF_main::reqB| |client::req@4|)))(let ((.def_391 (or .def_388 .def_390)))(let ((.def_310 (*_Bool@3 |__ADDRESS_OF_main::reqC|)))(let ((.def_386 (= .def_310 .def_385)))(let ((.def_314 (= |__ADDRESS_OF_main::reqC| |client::req@4|)))(let ((.def_387 (or .def_314 .def_386)))(let ((.def_396 (and .def_387 .def_391)))(let ((.def_304 (*_Bool@3 |__ADDRESS_OF_main::reqA|)))(let ((.def_394 (= .def_304 .def_393)))(let ((.def_392 (= |__ADDRESS_OF_main::reqA| |client::req@4|)))(let ((.def_395 (or .def_392 .def_394)))(let ((.def_397 (and .def_395 .def_396)))(let ((.def_1611 (and .def_397 .def_1610)))(let ((.def_296 (*_Bool@3 |client::req@3|)))(let ((.def_1603 (= sclient$req@3 .def_296)))(let ((.def_220 (*_Bool@2 |__ADDRESS_OF_main::reqA|)))(let ((.def_305 (= .def_220 .def_304)))(let ((.def_303 (= |__ADDRESS_OF_main::reqA| |client::req@3|)))(let ((.def_306 (or .def_303 .def_305)))(let ((.def_225 (*_Bool@2 |__ADDRESS_OF_main::reqB|)))(let ((.def_301 (= .def_225 .def_300)))(let ((.def_229 (= |__ADDRESS_OF_main::reqB| |client::req@3|)))(let ((.def_302 (or .def_229 .def_301)))(let ((.def_307 (and .def_302 .def_306)))(let ((.def_1604 (and .def_307 .def_1603)))(let ((.def_216 (*_Bool@2 |client::req@2|)))(let ((.def_1596 (= sclient$req@3 .def_216)))(let ((.def_145 (*_Bool@1 |__ADDRESS_OF_main::reqA|)))(let ((.def_221 (= .def_145 .def_220)))(let ((.def_149 (= |__ADDRESS_OF_main::reqA| |client::req@2|)))(let ((.def_222 (or .def_149 .def_221)))(let ((.def_1597 (and .def_222 .def_1596)))(let ((.def_152 (= |main::ackA@2| |client::ack@2|)))(let ((.def_153 (and .def_149 .def_152)))(let ((.def_147 (= .def_145 |main::reqA@2|)))(let ((.def_154 (and .def_147 .def_153)))(let ((.def_141 ((_ extract 7 0) A@2)))(let ((.def_143 (= .def_141 sarbiter$state@3)))(let ((.def_139 (= scontroller$pass_token@3 (_ bv1 8))))(let ((.def_135 (= scontroller$ack@3 (_ bv0 8))))(let ((.def_132 (= scontroller$state@3 (_ bv0 8))))(let ((.def_129 (= sclient$req@3 (_ bv0 8))))(let ((.def_126 (= sclient$state@3 (_ bv0 8))))(let ((.def_118 (bvadd (_ bv1 32) |__ADDRESS_OF_main::pass_tokenB|)))(let ((.def_121 (bvslt |__ADDRESS_OF_main::pass_tokenC| .def_118)))(let ((.def_122 (not .def_121)))(let ((.def_119 (bvslt (_ bv0 32) .def_118)))(let ((.def_123 (and .def_119 .def_122)))(let ((.def_109 (bvadd (_ bv1 32) |__ADDRESS_OF_main::pass_tokenA|)))(let ((.def_112 (bvslt |__ADDRESS_OF_main::pass_tokenB| .def_109)))(let ((.def_113 (not .def_112)))(let ((.def_110 (bvslt (_ bv0 32) .def_109)))(let ((.def_114 (and .def_110 .def_113)))(let ((.def_100 (bvadd (_ bv1 32) |__ADDRESS_OF_main::reqC|)))(let ((.def_103 (bvslt |__ADDRESS_OF_main::pass_tokenA| .def_100)))(let ((.def_104 (not .def_103)))(let ((.def_101 (bvslt (_ bv0 32) .def_100)))(let ((.def_105 (and .def_101 .def_104)))(let ((.def_91 (bvadd (_ bv1 32) |__ADDRESS_OF_main::reqB|)))(let ((.def_94 (bvslt |__ADDRESS_OF_main::reqC| .def_91)))(let ((.def_95 (not .def_94)))(let ((.def_92 (bvslt (_ bv0 32) .def_91)))(let ((.def_96 (and .def_92 .def_95)))(let ((.def_82 (bvadd (_ bv1 32) |__ADDRESS_OF_main::reqA|)))(let ((.def_85 (bvslt |__ADDRESS_OF_main::reqB| .def_82)))(let ((.def_86 (not .def_85)))(let ((.def_83 (bvslt (_ bv0 32) .def_82)))(let ((.def_87 (and .def_83 .def_86)))(let ((.def_73 (bvadd (_ bv1 32) |__ADDRESS_OF_main::sel|)))(let ((.def_76 (bvslt |__ADDRESS_OF_main::reqA| .def_73)))(let ((.def_77 (not .def_76)))(let ((.def_74 (bvslt (_ bv0 32) .def_73)))(let ((.def_78 (and .def_74 .def_77)))(let ((.def_64 (bvadd (_ bv1 32) |__ADDRESS_OF_main::ackC|)))(let ((.def_67 (bvslt |__ADDRESS_OF_main::sel| .def_64)))(let ((.def_68 (not .def_67)))(let ((.def_65 (bvslt (_ bv0 32) .def_64)))(let ((.def_69 (and .def_65 .def_68)))(let ((.def_55 (bvadd (_ bv1 32) |__ADDRESS_OF_main::ackB|)))(let ((.def_58 (bvslt |__ADDRESS_OF_main::ackC| .def_55)))(let ((.def_59 (not .def_58)))(let ((.def_56 (bvslt (_ bv0 32) .def_55)))(let ((.def_60 (and .def_56 .def_59)))(let ((.def_46 (bvadd (_ bv1 32) |__ADDRESS_OF_main::ackA|)))(let ((.def_49 (bvslt |__ADDRESS_OF_main::ackB| .def_46)))(let ((.def_50 (not .def_49)))(let ((.def_47 (bvslt (_ bv0 32) .def_46)))(let ((.def_51 (and .def_47 .def_50)))(let ((.def_42 (bvslt (_ bv0 32) |__ADDRESS_OF_main::ackA|)))(let ((.def_38 (= sclient$req@2 (_ bv0 8))))(let ((.def_36 (= sclient$state@2 (_ bv0 8))))(let ((.def_39 (and .def_36 .def_38)))(let ((.def_33 (= sarbiter$state@2 (_ bv0 8))))(let ((.def_29 (= scontroller$pass_token@2 (_ bv0 8))))(let ((.def_26 (= scontroller$state@2 (_ bv0 8))))(let ((.def_24 (= scontroller$ack@2 (_ bv0 8))))(let ((.def_27 (and .def_24 .def_26)))(let ((.def_30 (and .def_27 .def_29)))(let ((.def_20 (= X@2 (_ bv3 32))))(let ((.def_16 (= C@2 (_ bv2 32))))(let ((.def_12 (= B@2 (_ bv1 32))))(let ((.def_9 (= A@2 (_ bv0 32))))(let ((.def_13 (and .def_9 .def_12)))(let ((.def_17 (and .def_13 .def_16)))(let ((.def_21 (and .def_17 .def_20)))(let ((.def_31 (and .def_21 .def_30)))(let ((.def_34 (and .def_31 .def_33)))(let ((.def_40 (and .def_34 .def_39)))(let ((.def_43 (and .def_40 .def_42)))(let ((.def_52 (and .def_43 .def_51)))(let ((.def_61 (and .def_52 .def_60)))(let ((.def_70 (and .def_61 .def_69)))(let ((.def_79 (and .def_70 .def_78)))(let ((.def_88 (and .def_79 .def_87)))(let ((.def_97 (and .def_88 .def_96)))(let ((.def_106 (and .def_97 .def_105)))(let ((.def_115 (and .def_106 .def_114)))(let ((.def_124 (and .def_115 .def_123)))(let ((.def_127 (and .def_124 .def_126)))(let ((.def_130 (and .def_127 .def_129)))(let ((.def_133 (and .def_130 .def_132)))(let ((.def_136 (and .def_133 .def_135)))(let ((.def_140 (and .def_136 .def_139)))(let ((.def_144 (and .def_140 .def_143)))(let ((.def_1592 (and .def_144 .def_154)))(let ((.def_156 (= |client::rand_choice@2| (_ bv0 8))))(let ((.def_1593 (and .def_156 .def_1592)))(let ((.def_1594 (and .def_126 .def_1593)))(let ((.def_1595 (and .def_156 .def_1594)))(let ((.def_1598 (and .def_1595 .def_1597)))(let ((.def_232 (= |main::ackB@2| |client::ack@3|)))(let ((.def_233 (and .def_229 .def_232)))(let ((.def_227 (= .def_225 |main::reqB@2|)))(let ((.def_234 (and .def_227 .def_233)))(let ((.def_1599 (and .def_234 .def_1598)))(let ((.def_237 (= |client::rand_choice@3| (_ bv0 8))))(let ((.def_1600 (and .def_237 .def_1599)))(let ((.def_1601 (and .def_126 .def_1600)))(let ((.def_1602 (and .def_237 .def_1601)))(let ((.def_1605 (and .def_1602 .def_1604)))(let ((.def_317 (= |main::ackC@2| |client::ack@4|)))(let ((.def_318 (and .def_314 .def_317)))(let ((.def_312 (= .def_310 |main::reqC@2|)))(let ((.def_319 (and .def_312 .def_318)))(let ((.def_1606 (and .def_319 .def_1605)))(let ((.def_322 (= |client::rand_choice@4| (_ bv0 8))))(let ((.def_1607 (and .def_322 .def_1606)))(let ((.def_1608 (and .def_126 .def_1607)))(let ((.def_1609 (and .def_322 .def_1608)))(let ((.def_1612 (and .def_1609 .def_1611)))(let ((.def_413 (= .def_411 |main::pass_tokenA@2|)))(let ((.def_403 (= |main::ackA@2| .def_402)))(let ((.def_420 (and .def_403 .def_413)))(let ((.def_418 (= .def_141 |controller::id@2|)))(let ((.def_415 (= |__ADDRESS_OF_main::pass_tokenA| |controller::pass_token@2|)))(let ((.def_409 (= |main::sel@2| |controller::sel@2|)))(let ((.def_401 (= .def_393 |controller::req@2|)))(let ((.def_406 (and .def_401 .def_405)))(let ((.def_410 (and .def_406 .def_409)))(let ((.def_416 (and .def_410 .def_415)))(let ((.def_419 (and .def_416 .def_418)))(let ((.def_421 (and .def_419 .def_420)))(let ((.def_1613 (and .def_421 .def_1612)))(let ((.def_424 ((_ zero_extend 24) |controller::id@2|)))(let ((.def_425 (= .def_424 (_ bv3 32))))(let ((.def_426 (ite .def_425 (_ bv1 32) (_ bv0 32))))(let ((.def_432 ((_ extract 7 0) .def_426)))(let ((.def_435 (bvand |controller::sel@2| .def_432)))(let ((.def_437 (bvand (_ bv3 8) .def_435)))(let ((.def_439 (= .def_437 |controller::is_selected@3|)))(let ((.def_1614 (and .def_439 .def_1613)))(let ((.def_1615 (and .def_132 .def_1614)))(let ((.def_489 (= |controller::is_selected@3| (_ bv0 8))))(let ((.def_1616 (and .def_489 .def_1615)))(let ((.def_498 (= scontroller$pass_token@4 (_ bv0 8))))(let ((.def_1617 (and .def_498 .def_1616)))(let ((.def_1620 (and .def_1617 .def_1619)))(let ((.def_546 (= .def_518 .def_545)))(let ((.def_544 (= |__ADDRESS_OF_main::ackA| |controller::pass_token@2|)))(let ((.def_547 (or .def_544 .def_546)))(let ((.def_542 (= .def_513 .def_541)))(let ((.def_543 (or .def_415 .def_542)))(let ((.def_560 (and .def_543 .def_547)))(let ((.def_550 (= .def_522 .def_549)))(let ((.def_548 (= |__ADDRESS_OF_main::reqC| |controller::pass_token@2|)))(let ((.def_551 (or .def_548 .def_550)))(let ((.def_561 (and .def_551 .def_560)))(let ((.def_554 (= .def_526 .def_553)))(let ((.def_552 (= |__ADDRESS_OF_main::reqB| |controller::pass_token@2|)))(let ((.def_555 (or .def_552 .def_554)))(let ((.def_562 (and .def_555 .def_561)))(let ((.def_558 (= .def_530 .def_557)))(let ((.def_556 (= |__ADDRESS_OF_main::reqA| |controller::pass_token@2|)))(let ((.def_559 (or .def_556 .def_558)))(let ((.def_563 (and .def_559 .def_562)))(let ((.def_539 (*_Bool@6 |controller::pass_token@2|)))(let ((.def_540 (= scontroller$pass_token@4 .def_539)))(let ((.def_564 (and .def_540 .def_563)))(let ((.def_1621 (and .def_564 .def_1620)))(let ((.def_578 (= .def_576 |main::pass_tokenB@2|)))(let ((.def_569 (= |main::ackB@2| .def_568)))(let ((.def_586 (and .def_569 .def_578)))(let ((.def_582 ((_ extract 7 0) B@2)))(let ((.def_584 (= .def_582 |controller::id@3|)))(let ((.def_580 (= |__ADDRESS_OF_main::pass_tokenB| |controller::pass_token@3|)))(let ((.def_574 (= |main::sel@2| |controller::sel@3|)))(let ((.def_567 (= .def_553 |controller::req@3|)))(let ((.def_572 (and .def_567 .def_571)))(let ((.def_575 (and .def_572 .def_574)))(let ((.def_581 (and .def_575 .def_580)))(let ((.def_585 (and .def_581 .def_584)))(let ((.def_587 (and .def_585 .def_586)))(let ((.def_1622 (and .def_587 .def_1621)))(let ((.def_590 ((_ zero_extend 24) |controller::id@3|)))(let ((.def_591 (= .def_590 (_ bv3 32))))(let ((.def_592 (ite .def_591 (_ bv1 32) (_ bv0 32))))(let ((.def_598 ((_ extract 7 0) .def_592)))(let ((.def_601 (bvand |controller::sel@3| .def_598)))(let ((.def_602 (bvand (_ bv3 8) .def_601)))(let ((.def_604 (= .def_602 |controller::is_selected@5|)))(let ((.def_1623 (and .def_604 .def_1622)))(let ((.def_1624 (and .def_132 .def_1623)))(let ((.def_654 (= |controller::is_selected@5| (_ bv0 8))))(let ((.def_1625 (and .def_654 .def_1624)))(let ((.def_663 (= scontroller$pass_token@5 (_ bv0 8))))(let ((.def_1626 (and .def_663 .def_1625)))(let ((.def_1629 (and .def_1626 .def_1628)))(let ((.def_721 (= .def_683 .def_720)))(let ((.def_719 (= |__ADDRESS_OF_main::ackB| |controller::pass_token@3|)))(let ((.def_722 (or .def_719 .def_721)))(let ((.def_717 (= .def_678 .def_716)))(let ((.def_718 (or .def_580 .def_717)))(let ((.def_743 (and .def_718 .def_722)))(let ((.def_725 (= .def_687 .def_724)))(let ((.def_723 (= |__ADDRESS_OF_main::pass_tokenA| |controller::pass_token@3|)))(let ((.def_726 (or .def_723 .def_725)))(let ((.def_744 (and .def_726 .def_743)))(let ((.def_729 (= .def_691 .def_728)))(let ((.def_727 (= |__ADDRESS_OF_main::ackA| |controller::pass_token@3|)))(let ((.def_730 (or .def_727 .def_729)))(let ((.def_745 (and .def_730 .def_744)))(let ((.def_733 (= .def_695 .def_732)))(let ((.def_731 (= |__ADDRESS_OF_main::reqC| |controller::pass_token@3|)))(let ((.def_734 (or .def_731 .def_733)))(let ((.def_746 (and .def_734 .def_745)))(let ((.def_737 (= .def_699 .def_736)))(let ((.def_735 (= |__ADDRESS_OF_main::reqB| |controller::pass_token@3|)))(let ((.def_738 (or .def_735 .def_737)))(let ((.def_747 (and .def_738 .def_746)))(let ((.def_741 (= .def_703 .def_740)))(let ((.def_739 (= |__ADDRESS_OF_main::reqA| |controller::pass_token@3|)))(let ((.def_742 (or .def_739 .def_741)))(let ((.def_748 (and .def_742 .def_747)))(let ((.def_714 (*_Bool@8 |controller::pass_token@3|)))(let ((.def_715 (= scontroller$pass_token@5 .def_714)))(let ((.def_749 (and .def_715 .def_748)))(let ((.def_1630 (and .def_749 .def_1629)))(let ((.def_763 (= .def_761 |main::pass_tokenC@2|)))(let ((.def_754 (= |main::ackC@2| .def_753)))(let ((.def_771 (and .def_754 .def_763)))(let ((.def_767 ((_ extract 7 0) C@2)))(let ((.def_769 (= .def_767 |controller::id@4|)))(let ((.def_765 (= |__ADDRESS_OF_main::pass_tokenC| |controller::pass_token@4|)))(let ((.def_759 (= |main::sel@2| |controller::sel@4|)))(let ((.def_752 (= .def_732 |controller::req@4|)))(let ((.def_757 (and .def_752 .def_756)))(let ((.def_760 (and .def_757 .def_759)))(let ((.def_766 (and .def_760 .def_765)))(let ((.def_770 (and .def_766 .def_769)))(let ((.def_772 (and .def_770 .def_771)))(let ((.def_1631 (and .def_772 .def_1630)))(let ((.def_775 ((_ zero_extend 24) |controller::id@4|)))(let ((.def_776 (= .def_775 (_ bv3 32))))(let ((.def_777 (ite .def_776 (_ bv1 32) (_ bv0 32))))(let ((.def_783 ((_ extract 7 0) .def_777)))(let ((.def_786 (bvand |controller::sel@4| .def_783)))(let ((.def_787 (bvand (_ bv3 8) .def_786)))(let ((.def_789 (= .def_787 |controller::is_selected@7|)))(let ((.def_1632 (and .def_789 .def_1631)))(let ((.def_1633 (and .def_132 .def_1632)))(let ((.def_839 (= |controller::is_selected@7| (_ bv0 8))))(let ((.def_1634 (and .def_839 .def_1633)))(let ((.def_848 (= scontroller$pass_token@6 (_ bv0 8))))(let ((.def_1635 (and .def_848 .def_1634)))(let ((.def_1638 (and .def_1635 .def_1637)))(let ((.def_915 (*_Bool@10 |__ADDRESS_OF_main::ackC|)))(let ((.def_916 (= .def_868 .def_915)))(let ((.def_914 (= |__ADDRESS_OF_main::ackC| |controller::pass_token@4|)))(let ((.def_917 (or .def_914 .def_916)))(let ((.def_911 (*_Bool@10 |__ADDRESS_OF_main::pass_tokenC|)))(let ((.def_912 (= .def_863 .def_911)))(let ((.def_913 (or .def_765 .def_912)))(let ((.def_946 (and .def_913 .def_917)))(let ((.def_919 (*_Bool@10 |__ADDRESS_OF_main::pass_tokenB|)))(let ((.def_920 (= .def_872 .def_919)))(let ((.def_918 (= |__ADDRESS_OF_main::pass_tokenB| |controller::pass_token@4|)))(let ((.def_921 (or .def_918 .def_920)))(let ((.def_947 (and .def_921 .def_946)))(let ((.def_923 (*_Bool@10 |__ADDRESS_OF_main::ackB|)))(let ((.def_924 (= .def_876 .def_923)))(let ((.def_922 (= |__ADDRESS_OF_main::ackB| |controller::pass_token@4|)))(let ((.def_925 (or .def_922 .def_924)))(let ((.def_948 (and .def_925 .def_947)))(let ((.def_927 (*_Bool@10 |__ADDRESS_OF_main::pass_tokenA|)))(let ((.def_928 (= .def_880 .def_927)))(let ((.def_926 (= |__ADDRESS_OF_main::pass_tokenA| |controller::pass_token@4|)))(let ((.def_929 (or .def_926 .def_928)))(let ((.def_949 (and .def_929 .def_948)))(let ((.def_931 (*_Bool@10 |__ADDRESS_OF_main::ackA|)))(let ((.def_932 (= .def_884 .def_931)))(let ((.def_930 (= |__ADDRESS_OF_main::ackA| |controller::pass_token@4|)))(let ((.def_933 (or .def_930 .def_932)))(let ((.def_950 (and .def_933 .def_949)))(let ((.def_935 (*_Bool@10 |__ADDRESS_OF_main::reqC|)))(let ((.def_936 (= .def_888 .def_935)))(let ((.def_934 (= |__ADDRESS_OF_main::reqC| |controller::pass_token@4|)))(let ((.def_937 (or .def_934 .def_936)))(let ((.def_951 (and .def_937 .def_950)))(let ((.def_939 (*_Bool@10 |__ADDRESS_OF_main::reqB|)))(let ((.def_940 (= .def_892 .def_939)))(let ((.def_938 (= |__ADDRESS_OF_main::reqB| |controller::pass_token@4|)))(let ((.def_941 (or .def_938 .def_940)))(let ((.def_952 (and .def_941 .def_951)))(let ((.def_943 (*_Bool@10 |__ADDRESS_OF_main::reqA|)))(let ((.def_944 (= .def_896 .def_943)))(let ((.def_942 (= |__ADDRESS_OF_main::reqA| |controller::pass_token@4|)))(let ((.def_945 (or .def_942 .def_944)))(let ((.def_953 (and .def_945 .def_952)))(let ((.def_909 (*_Bool@10 |controller::pass_token@4|)))(let ((.def_910 (= scontroller$pass_token@6 .def_909)))(let ((.def_954 (and .def_910 .def_953)))(let ((.def_1639 (and .def_954 .def_1638)))(let ((.def_962 (= |main::active@2| |arbiter::active@2|)))(let ((.def_959 (= |__ADDRESS_OF_main::sel| |arbiter::sel@2|)))(let ((.def_963 (and .def_959 .def_962)))(let ((.def_956 (*unsigned_char@1 |__ADDRESS_OF_main::sel|)))(let ((.def_957 (= |main::sel@2| .def_956)))(let ((.def_964 (and .def_957 .def_963)))(let ((.def_1640 (and .def_964 .def_1639)))(let ((.def_968 (= |arbiter::active@2| (_ bv0 8))))(let ((.def_1641 (and .def_968 .def_1640)))(let ((.def_1642 (and .def_968 .def_1641)))(let ((.def_1013 (= X@2 |arbiter::__CPAchecker_TMP_0@3|)))(let ((.def_1643 (and .def_1013 .def_1642)))(let ((.def_1021 (*unsigned_char@2 |__ADDRESS_OF_main::sel|)))(let ((.def_1022 (= .def_956 .def_1021)))(let ((.def_1023 (or .def_959 .def_1022)))(let ((.def_1017 (*unsigned_char@2 |arbiter::sel@2|)))(let ((.def_1016 ((_ extract 7 0) |arbiter::__CPAchecker_TMP_0@3|)))(let ((.def_1018 (= .def_1016 .def_1017)))(let ((.def_1024 (and .def_1018 .def_1023)))(let ((.def_1644 (and .def_1024 .def_1643)))(let ((.def_1028 (= .def_927 (_ bv0 8))))(let ((.def_1645 (and .def_1028 .def_1644)))(let ((.def_1035 (= .def_919 (_ bv0 8))))(let ((.def_1646 (and .def_1035 .def_1645)))(let ((.def_1043 (= .def_911 (_ bv0 8))))(let ((.def_1647 (and .def_1043 .def_1646)))(let ((.def_1052 (= |main::__CPAchecker_TMP_0@3| (_ bv0 32))))(let ((.def_1648 (and .def_1052 .def_1647)))(let ((.def_1055 ((_ extract 7 0) |main::__CPAchecker_TMP_0@3|)))(let ((.def_1057 (= .def_1055 |main::active@3|)))(let ((.def_1649 (and .def_1057 .def_1648)))(let ((.def_1059 ((_ zero_extend 24) .def_931)))(let ((.def_1060 (= .def_1059 (_ bv1 32))))(let ((.def_1063 (not .def_1060)))(let ((.def_1650 (and .def_1063 .def_1649)))(let ((.def_1065 ((_ zero_extend 24) .def_923)))(let ((.def_1066 (= .def_1065 (_ bv1 32))))(let ((.def_1069 (not .def_1066)))(let ((.def_1651 (and .def_1069 .def_1650)))(let ((.def_1074 ((_ zero_extend 24) .def_915)))(let ((.def_1075 (= .def_1074 (_ bv1 32))))(let ((.def_1078 (not .def_1075)))(let ((.def_1652 (and .def_1078 .def_1651))).def_1652))))))))))))))))))))))))))))))))))))))))))))))))))))))))))))))))))))))))))))))))))))))))))))))))))))))))))))))))))))))))))))))))))))))))))))))))))))))))))))))))))))))))))))))))))))))))))))))))))))))))))))))))))))))))))))))))))))))))))))))))))))))))))))))))))))))))))))))))))))))))))))))))))))))))))))))))))))))))))))))))))))))))))))))))))))))))))))))))))))))))))))))))))))))))))))))))))))))))))))))))))))))))))))))))))))))))))))))))))))))))))))))))))))))))))))))))))))))))))))))))))))))))))))))))))))))))))))))))